Version identifier: 22.1.0.0 | 2022-03-09 | 1a383f8ce
CPXPARAM_Read_DataCheck                          1
Tried aggregator 4 times.
MIP Presolve eliminated 21076 rows and 3114 columns.
MIP Presolve modified 385 coefficients.
Aggregator did 18619 substitutions.
Reduced MIP has 3282 rows, 19231 columns, and 41746 nonzeros.
Reduced MIP has 19209 binaries, 22 generals, 0 SOSs, and 0 indicators.
Presolve time = 0.17 sec. (189.71 ticks)
Tried aggregator 1 time.
Detecting symmetries...
Reduced MIP has 3282 rows, 19231 columns, and 41746 nonzeros.
Reduced MIP has 19209 binaries, 22 generals, 0 SOSs, and 0 indicators.
Presolve time = 0.03 sec. (28.79 ticks)
Probing fixed 36 vars, tightened 0 bounds.
Probing time = 0.08 sec. (10.07 ticks)
Clique table members: 39193.
MIP emphasis: balance optimality and feasibility.
MIP search method: dynamic search.
Parallel mode: deterministic, using up to 8 threads.
Root relaxation solution time = 0.30 sec. (157.83 ticks)

        Nodes                                         Cuts/
   Node  Left     Objective  IInf  Best Integer    Best Bound    ItCnt     Gap

      0     0       22.4238  2622                     22.4238     3039         
      0     0       37.0000   606                    Cuts: 47     8939         
      0     0       37.0000   453                    Cuts: 31    12179         
      0     0       37.0000   343                ZeroHalf: 14    15040         
      0     0       37.0000   411                ZeroHalf: 27    17859         
      0     0       37.0000   357                 ZeroHalf: 4    20493         
      0     0       37.0000   516                ZeroHalf: 31    24638         
*     0+    0                           43.0000       37.0000            13.95%
*     0+    0                           42.0000       37.0000            11.90%
*     0+    0                           41.0000       37.0000             9.76%
      0     2       37.0000   299       41.0000       37.0000    24638    9.76%
Elapsed time = 63.27 sec. (32556.88 ticks, tree = 0.02 MB, solutions = 3)
      1     3       37.0000   233       41.0000       37.0000    29687    9.76%
      3     5       37.0000   429       41.0000       37.0000    34463    9.76%
      5     4       37.0000   209       41.0000       37.0000    30517    9.76%
      6     6       37.0000   362       41.0000       37.0000    37999    9.76%
      9     6       37.0000   246       41.0000       37.0000    37098    9.76%
     10     8       37.0000   447       41.0000       37.0000    43814    9.76%
     14    15       37.0833   423       41.0000       37.0000    62125    9.76%
*    15+    5                           40.0000       37.0000             7.50%
     19    17       37.1250   357       40.0000       37.0000    64177    7.50%
     25    19       37.0000   432       40.0000       37.0000    72208    7.50%
     64    26       37.0000   302       40.0000       37.0000    78376    7.50%
Elapsed time = 78.53 sec. (40107.62 ticks, tree = 0.24 MB, solutions = 5)
    115    45       37.0000   418       40.0000       37.0000   112365    7.50%
*   161+   71                           39.0000       37.0000             5.13%
*   180   142      integral     0       38.0000       37.0000   270685    2.63%
    262   121       37.0000   148       38.0000       37.0000   275903    2.63%
    437   172       37.0000    70       38.0000       37.0000   334639    2.63%
    739   206    infeasible             38.0000       37.0000   396799    2.63%
   1040   297       37.0000   201       38.0000       37.0000   432424    2.63%
   1467   352        cutoff             38.0000       37.0000   468869    2.63%
   1977   489       37.0000   231       38.0000       37.0000   519403    2.63%
   2481   959       37.0000    39       38.0000       37.0000   625568    2.63%
   2953  1135        cutoff             38.0000       37.0000   655708    2.63%
   3376  1379       37.0000    39       38.0000       37.0000   728577    2.63%
Elapsed time = 109.35 sec. (49675.56 ticks, tree = 13.01 MB, solutions = 7)
   3889  1504       37.0000   161       38.0000       37.0000   790157    2.63%
   4499  1892       37.0000   292       38.0000       37.0000   884999    2.63%
   5213  1972        cutoff             38.0000       37.0000   919384    2.63%

Performing restart 1

Repeating presolve.
Tried aggregator 3 times.
MIP Presolve eliminated 636 rows and 9068 columns.
MIP Presolve modified 3 coefficients.
Aggregator did 574 substitutions.
Reduced MIP has 2072 rows, 9589 columns, and 21089 nonzeros.
Reduced MIP has 9589 binaries, 0 generals, 0 SOSs, and 0 indicators.
Presolve time = 0.09 sec. (45.02 ticks)
Tried aggregator 2 times.
MIP Presolve eliminated 5 rows and 48 columns.
MIP Presolve modified 3 coefficients.
Aggregator did 5 substitutions.
Reduced MIP has 2062 rows, 9536 columns, and 20993 nonzeros.
Reduced MIP has 9536 binaries, 0 generals, 0 SOSs, and 0 indicators.
Presolve time = 0.06 sec. (24.52 ticks)
Represolve time = 0.32 sec. (168.54 ticks)
   5460     0       37.0000   287       38.0000      Cuts: 10   985598    2.63%
   5460     0       37.0000   272       38.0000       Cuts: 8   988023    2.63%
   5460     0       37.0000   321       38.0000      Cuts: 38   989510    2.63%
   5460     0       37.0000   429       38.0000       Cuts: 6   990882    2.63%
   5460     0       37.0000   319       38.0000       Cuts: 5   992349    2.63%
   5460     0       37.0000   335       38.0000      Cuts: 11   993920    2.63%
   5460     0       37.0000   305       38.0000      Cuts: 11   995964    2.63%
   5460     0       37.0000   400       38.0000   ZeroHalf: 4   997756    2.63%
   5460     2       37.0000   305       38.0000       37.0000   997756    2.63%
   5462     4       37.0000   221       38.0000       37.0000  1001654    2.63%
   5468     9       37.0000   149       38.0000       37.0000  1006224    2.63%
   5477    19       37.0000   287       38.0000       37.0000  1012189    2.63%
   5515    37       37.0000   224       38.0000       37.0000  1032389    2.63%
   5565    68       37.0000   167       38.0000       37.0000  1048815    2.63%
   5721   106       37.0000   135       38.0000       37.0000  1067313    2.63%
Elapsed time = 184.29 sec. (88756.45 ticks, tree = 1.18 MB, solutions = 7)
   5986   163       37.0000   180       38.0000       37.0000  1104619    2.63%
   6461   271        cutoff             38.0000       37.0000  1146394    2.63%
   6862   337       37.0000   105       38.0000       37.0000  1165331    2.63%
   7142   491       37.0000   374       38.0000       37.0000  1236000    2.63%
   7194   522       37.0000   292       38.0000       37.0000  1269145    2.63%
   7265   543       37.0000   278       38.0000       37.0000  1295003    2.63%
   7377   618       37.0000    99       38.0000       37.0000  1345917    2.63%
   7580   731        cutoff             38.0000       37.0000  1380220    2.63%
   7719   857        cutoff             38.0000       37.0000  1431915    2.63%
   7811   926       37.0000   190       38.0000       37.0000  1448126    2.63%
Elapsed time = 210.26 sec. (98382.14 ticks, tree = 4.99 MB, solutions = 7)
   7880   968       37.0000   229       38.0000       37.0000  1490343    2.63%
   7923   998       37.0000   301       38.0000       37.0000  1515279    2.63%
   7991  1023       37.0000   173       38.0000       37.0000  1559793    2.63%
   8112  1085       37.0000   273       38.0000       37.0000  1596491    2.63%
   8219  1174       37.0000   229       38.0000       37.0000  1621015    2.63%
   8286  1226        cutoff             38.0000       37.0000  1668850    2.63%
   8330  1279       37.0000   361       38.0000       37.0000  1703968    2.63%
   8372  1296       37.0000   313       38.0000       37.0000  1749277    2.63%
   8420  1316       37.0000   252       38.0000       37.0000  1766690    2.63%
   8477  1350       37.0000   246       38.0000       37.0000  1817978    2.63%
Elapsed time = 236.37 sec. (108048.59 ticks, tree = 7.27 MB, solutions = 7)
   8530  1358        cutoff             38.0000       37.0000  1823735    2.63%
   8603  1388       37.0000   172       38.0000       37.0000  1843222    2.63%
   8668  1435        cutoff             38.0000       37.0000  1907298    2.63%
   8762  1460       37.0000   184       38.0000       37.0000  1935650    2.63%
   8847  1512       37.0000   114       38.0000       37.0000  1993427    2.63%
   8916  1551       37.0000   262       38.0000       37.0000  2006049    2.63%
   8964  1572    infeasible             38.0000       37.0000  2040516    2.63%
   9012  1599        cutoff             38.0000       37.0000  2090177    2.63%
   9035  1590       37.0000   135       38.0000       37.0000  2140127    2.63%
   9149  1618       37.0000   137       38.0000       37.0000  2188438    2.63%
Elapsed time = 262.31 sec. (117742.36 ticks, tree = 8.56 MB, solutions = 7)
   9230  1632       37.0000   157       38.0000       37.0000  2219181    2.63%
   9272  1646        cutoff             38.0000       37.0000  2270988    2.63%
   9335  1640       37.0000   142       38.0000       37.0000  2267064    2.63%
   9376  1654        cutoff             38.0000       37.0000  2363310    2.63%
   9422  1650       37.0000   170       38.0000       37.0000  2377625    2.63%
   9468  1682        cutoff             38.0000       37.0000  2432160    2.63%
   9499  1661        cutoff             38.0000       37.0000  2401292    2.63%
   9546  1712       37.0000    85       38.0000       37.0000  2504928    2.63%
   9613  1728        cutoff             38.0000       37.0000  2548016    2.63%
   9701  1738       37.0000   392       38.0000       37.0000  2602883    2.63%
Elapsed time = 289.12 sec. (127484.42 ticks, tree = 9.02 MB, solutions = 7)
   9750  1763       37.0000   356       38.0000       37.0000  2616334    2.63%
   9797  1759        cutoff             38.0000       37.0000  2638206    2.63%
   9837  1789    infeasible             38.0000       37.0000  2676660    2.63%
   9902  1792       37.0000   219       38.0000       37.0000  2683273    2.63%
   9985  1785        cutoff             38.0000       37.0000  2691156    2.63%
  10072  1842        cutoff             38.0000       37.0000  2802972    2.63%
  10139  1825       37.0000   169       38.0000       37.0000  2785627    2.63%
  10192  1889       37.0000   253       38.0000       37.0000  2876237    2.63%
  10273  1863    infeasible             38.0000       37.0000  2922627    2.63%
  10315  1885       37.0000   141       38.0000       37.0000  2963434    2.63%
Elapsed time = 313.54 sec. (137077.65 ticks, tree = 9.71 MB, solutions = 7)
  10396  1886        cutoff             38.0000       37.0000  2952441    2.63%
  10473  1899       37.0000   120       38.0000       37.0000  3055666    2.63%
  10535  1934        cutoff             38.0000       37.0000  3111919    2.63%
  10617  1923        cutoff             38.0000       37.0000  3152410    2.63%
  10664  1919        cutoff             38.0000       37.0000  3238361    2.63%
  10734  1911        cutoff             38.0000       37.0000  3246464    2.63%
  10774  1918        cutoff             38.0000       37.0000  3280904    2.63%
  10804  1902       37.0000   179       38.0000       37.0000  3303121    2.63%
  10854  1882    infeasible             38.0000       37.0000  3394773    2.63%
  10905  1884       37.0000   188       38.0000       37.0000  3410212    2.63%
Elapsed time = 340.86 sec. (146750.00 ticks, tree = 9.45 MB, solutions = 7)
  10997  1885        cutoff             38.0000       37.0000  3442213    2.63%
  11070  1889        cutoff             38.0000       37.0000  3519271    2.63%
  11174  1890       37.0000   151       38.0000       37.0000  3580743    2.63%
  11225  1893       37.0000   164       38.0000       37.0000  3571389    2.63%
  11300  1910       37.0000   310       38.0000       37.0000  3649491    2.63%
  11350  1900    infeasible             38.0000       37.0000  3645977    2.63%
  11423  1939       37.0000   343       38.0000       37.0000  3699380    2.63%
  11526  1942        cutoff             38.0000       37.0000  3734324    2.63%
  11634  1923       37.0000   465       38.0000       37.0000  3734190    2.63%
  11990  2007       37.0000   356       38.0000       37.0000  3915904    2.63%
Elapsed time = 377.06 sec. (159374.89 ticks, tree = 9.78 MB, solutions = 7)
  12364  2029    infeasible             38.0000       37.0000  4067388    2.63%
  12593  2037        cutoff             38.0000       37.0000  4270753    2.63%
  12769  2024        cutoff             38.0000       37.0000  4406851    2.63%
  13030  2013       37.0000    84       38.0000       37.0000  4514103    2.63%
  13304  2011       37.0000   328       38.0000       37.0000  4723772    2.63%
  13497  2039       37.0000   558       38.0000       37.0000  4839783    2.63%
  13759  2072       37.0000   290       38.0000       37.0000  4983405    2.63%
  14209  2119       37.0000   305       38.0000       37.0000  5148904    2.63%
  14666  2132       37.0000   320       38.0000       37.0000  5283896    2.63%
  14988  2088        cutoff             38.0000       37.0000  5491783    2.63%
Elapsed time = 479.26 sec. (197599.12 ticks, tree = 17.04 MB, solutions = 7)
  15329  2052        cutoff             38.0000       37.0000  5707985    2.63%
  15608  2063        cutoff             38.0000       37.0000  5789241    2.63%
  15905  2083        cutoff             38.0000       37.0000  5953509    2.63%
  16033  2099       37.0000   321       38.0000       37.0000  6095711    2.63%
  16279  2140       37.0000   181       38.0000       37.0000  6232840    2.63%
  16647  2114       37.0000   309       38.0000       37.0000  6349551    2.63%
  16896  2104    infeasible             38.0000       37.0000  6492147    2.63%
  17085  2092       37.0000   485       38.0000       37.0000  6700219    2.63%
  17249  2109        cutoff             38.0000       37.0000  6822667    2.63%
  17386  2066        cutoff             38.0000       37.0000  6970346    2.63%
Elapsed time = 582.22 sec. (235874.92 ticks, tree = 21.55 MB, solutions = 7)
  17682  2027        cutoff             38.0000       37.0000  7113539    2.63%
  17956  2046       37.0000   304       38.0000       37.0000  7224941    2.63%
  18186  1995        cutoff             38.0000       37.0000  7384607    2.63%
  18583  2003       37.0000   273       38.0000       37.0000  7592567    2.63%
  18889  2010       37.0000   225       38.0000       37.0000  7664850    2.63%
  19217  1972        cutoff             38.0000       37.0000  7880613    2.63%
  19471  1931        cutoff             38.0000       37.0000  8174769    2.63%
  19812  1905        cutoff             38.0000       37.0000  8264074    2.63%
  20096  1935        cutoff             38.0000       37.0000  8603978    2.63%
  20338  1911       37.0000   352       38.0000       37.0000  8782864    2.63%
Elapsed time = 685.42 sec. (274166.93 ticks, tree = 22.66 MB, solutions = 7)
  20641  1842        cutoff             38.0000       37.0000  8996079    2.63%
  20972  1874       37.0000   214       38.0000       37.0000  9211784    2.63%
  21323  1887       37.0000   554       38.0000       37.0000  9665942    2.63%
  21672  1930       37.0000   631       38.0000       37.0000  9674827    2.63%
  22144  1802        cutoff             38.0000       37.0000 10042206    2.63%
  22438  1772        cutoff             38.0000       37.0000 10450140    2.63%
  22689  1718       37.0000   253       38.0000       37.0000 10747662    2.63%
  23135  1613        cutoff             38.0000       37.0000 11200664    2.63%
  23274  1576       37.0000   397       38.0000       37.0000 11273516    2.63%
  23485  1543       37.0000   391       38.0000       37.0000 11702890    2.63%
Elapsed time = 786.44 sec. (312419.13 ticks, tree = 18.83 MB, solutions = 7)
  23722  1510       37.0000   489       38.0000       37.0000 12057655    2.63%
  23984  1496       37.0000   386       38.0000       37.0000 12214514    2.63%
  24237  1453       37.0000   544       38.0000       37.0000 12395396    2.63%
  24589  1453        cutoff             38.0000       37.0000 12546511    2.63%
  24806  1456       37.0000   377       38.0000       37.0000 12803422    2.63%
  25058  1422        cutoff             38.0000       37.0000 13207728    2.63%
  25297  1354        cutoff             38.0000       37.0000 13498156    2.63%
  25662  1305       37.0000   362       38.0000       37.0000 13717009    2.63%
  25975  1276       37.0000   415       38.0000       37.0000 13922935    2.63%
  26126  1211        cutoff             38.0000       37.0000 14084930    2.63%
Elapsed time = 886.07 sec. (350724.56 ticks, tree = 13.80 MB, solutions = 7)
  26334  1206       37.0000   502       38.0000       37.0000 14331807    2.63%
  26518  1158       37.0000   294       38.0000       37.0000 14611487    2.63%
  26772  1178       37.0000   524       38.0000       37.0000 14850221    2.63%
  26973  1152        cutoff             38.0000       37.0000 15325400    2.63%
  27217  1158       37.0000   366       38.0000       37.0000 15469924    2.63%
  27363  1157       37.0000   492       38.0000       37.0000 15671937    2.63%
  27495  1102        cutoff             38.0000       37.0000 16041447    2.63%
  27676  1141       37.0000   490       38.0000       37.0000 16140945    2.63%
Version identifier: 22.1.0.0 | 2022-03-09 | 1a383f8ce
CPXPARAM_Read_DataCheck                          1
CPXPARAM_TimeLimit                               600
Tried aggregator 4 times.
MIP Presolve eliminated 21076 rows and 3114 columns.
MIP Presolve modified 385 coefficients.
Aggregator did 18619 substitutions.
Reduced MIP has 3282 rows, 19231 columns, and 41746 nonzeros.
Reduced MIP has 19209 binaries, 22 generals, 0 SOSs, and 0 indicators.
Presolve time = 0.18 sec. (189.71 ticks)
Tried aggregator 1 time.
Detecting symmetries...
Reduced MIP has 3282 rows, 19231 columns, and 41746 nonzeros.
Reduced MIP has 19209 binaries, 22 generals, 0 SOSs, and 0 indicators.
Presolve time = 0.03 sec. (28.79 ticks)
Probing fixed 36 vars, tightened 0 bounds.
Probing time = 0.07 sec. (10.07 ticks)
Clique table members: 39193.
MIP emphasis: balance optimality and feasibility.
MIP search method: dynamic search.
Parallel mode: deterministic, using up to 8 threads.
Root relaxation solution time = 0.22 sec. (157.83 ticks)

        Nodes                                         Cuts/
   Node  Left     Objective  IInf  Best Integer    Best Bound    ItCnt     Gap

      0     0       22.4238  2622                     22.4238     3039         
      0     0       37.0000   606                    Cuts: 47     8939         
      0     0       37.0000   453                    Cuts: 31    12179         
      0     0       37.0000   343                ZeroHalf: 14    15040         
      0     0       37.0000   411                ZeroHalf: 27    17859         
      0     0       37.0000   357                 ZeroHalf: 4    20493         
      0     0       37.0000   516                ZeroHalf: 31    24638         
*     0+    0                           43.0000       37.0000            13.95%
*     0+    0                           42.0000       37.0000            11.90%
*     0+    0                           41.0000       37.0000             9.76%
      0     2       37.0000   299       41.0000       37.0000    24638    9.76%
Elapsed time = 64.12 sec. (32556.88 ticks, tree = 0.02 MB, solutions = 3)
      1     3       37.0000   233       41.0000       37.0000    29687    9.76%
      3     5       37.0000   429       41.0000       37.0000    34463    9.76%
      5     4       37.0000   209       41.0000       37.0000    30517    9.76%
      6     6       37.0000   362       41.0000       37.0000    37999    9.76%
      9     6       37.0000   246       41.0000       37.0000    37098    9.76%
     10     8       37.0000   447       41.0000       37.0000    43814    9.76%
     14    15       37.0833   423       41.0000       37.0000    62125    9.76%
*    15+    5                           40.0000       37.0000             7.50%
     19    17       37.1250   357       40.0000       37.0000    64177    7.50%
     25    19       37.0000   432       40.0000       37.0000    72208    7.50%
     64    26       37.0000   302       40.0000       37.0000    78376    7.50%
Elapsed time = 79.51 sec. (40107.62 ticks, tree = 0.24 MB, solutions = 5)
    115    45       37.0000   418       40.0000       37.0000   112365    7.50%
*   161+   71                           39.0000       37.0000             5.13%
*   180   142      integral     0       38.0000       37.0000   270685    2.63%
    262   121       37.0000   148       38.0000       37.0000   275903    2.63%
    437   172       37.0000    70       38.0000       37.0000   334639    2.63%
    739   206    infeasible             38.0000       37.0000   396799    2.63%
   1040   297       37.0000   201       38.0000       37.0000   432424    2.63%
   1467   352        cutoff             38.0000       37.0000   468869    2.63%
   1977   489       37.0000   231       38.0000       37.0000   519403    2.63%
   2481   959       37.0000    39       38.0000       37.0000   625568    2.63%
   2953  1135        cutoff             38.0000       37.0000   655708    2.63%
   3376  1379       37.0000    39       38.0000       37.0000   728577    2.63%
Elapsed time = 109.73 sec. (49675.56 ticks, tree = 13.01 MB, solutions = 7)
   3889  1504       37.0000   161       38.0000       37.0000   790157    2.63%
   4499  1892       37.0000   292       38.0000       37.0000   884999    2.63%
   5213  1972        cutoff             38.0000       37.0000   919384    2.63%

Performing restart 1

Repeating presolve.
Tried aggregator 3 times.
MIP Presolve eliminated 636 rows and 9068 columns.
MIP Presolve modified 3 coefficients.
Aggregator did 574 substitutions.
Reduced MIP has 2072 rows, 9589 columns, and 21089 nonzeros.
Reduced MIP has 9589 binaries, 0 generals, 0 SOSs, and 0 indicators.
Presolve time = 0.05 sec. (45.02 ticks)
Tried aggregator 2 times.
MIP Presolve eliminated 5 rows and 48 columns.
MIP Presolve modified 3 coefficients.
Aggregator did 5 substitutions.
Reduced MIP has 2062 rows, 9536 columns, and 20993 nonzeros.
Reduced MIP has 9536 binaries, 0 generals, 0 SOSs, and 0 indicators.
Presolve time = 0.02 sec. (24.52 ticks)
Represolve time = 0.23 sec. (168.54 ticks)
   5460     0       37.0000   287       38.0000      Cuts: 10   985598    2.63%
   5460     0       37.0000   272       38.0000       Cuts: 8   988023    2.63%
   5460     0       37.0000   321       38.0000      Cuts: 38   989510    2.63%
   5460     0       37.0000   429       38.0000       Cuts: 6   990882    2.63%
   5460     0       37.0000   319       38.0000       Cuts: 5   992349    2.63%
   5460     0       37.0000   335       38.0000      Cuts: 11   993920    2.63%
   5460     0       37.0000   305       38.0000      Cuts: 11   995964    2.63%
   5460     0       37.0000   400       38.0000   ZeroHalf: 4   997756    2.63%
   5460     2       37.0000   305       38.0000       37.0000   997756    2.63%
   5462     4       37.0000   221       38.0000       37.0000  1001654    2.63%
   5468     9       37.0000   149       38.0000       37.0000  1006224    2.63%
   5477    19       37.0000   287       38.0000       37.0000  1012189    2.63%
   5515    37       37.0000   224       38.0000       37.0000  1032389    2.63%
   5565    68       37.0000   167       38.0000       37.0000  1048815    2.63%
   5721   106       37.0000   135       38.0000       37.0000  1067313    2.63%
Elapsed time = 180.95 sec. (88756.45 ticks, tree = 1.18 MB, solutions = 7)
   5986   163       37.0000   180       38.0000       37.0000  1104619    2.63%
   6461   271        cutoff             38.0000       37.0000  1146394    2.63%
   6862   337       37.0000   105       38.0000       37.0000  1165331    2.63%
   7142   491       37.0000   374       38.0000       37.0000  1236000    2.63%
   7194   522       37.0000   292       38.0000       37.0000  1269145    2.63%
   7265   543       37.0000   278       38.0000       37.0000  1295003    2.63%
   7377   618       37.0000    99       38.0000       37.0000  1345917    2.63%
   7580   731        cutoff             38.0000       37.0000  1380220    2.63%
   7719   857        cutoff             38.0000       37.0000  1431915    2.63%
   7811   926       37.0000   190       38.0000       37.0000  1448126    2.63%
Elapsed time = 208.05 sec. (98382.14 ticks, tree = 4.99 MB, solutions = 7)
   7880   968       37.0000   229       38.0000       37.0000  1490343    2.63%
   7923   998       37.0000   301       38.0000       37.0000  1515279    2.63%
   7991  1023       37.0000   173       38.0000       37.0000  1559793    2.63%
   8112  1085       37.0000   273       38.0000       37.0000  1596491    2.63%
   8219  1174       37.0000   229       38.0000       37.0000  1621015    2.63%
   8286  1226        cutoff             38.0000       37.0000  1668850    2.63%
   8330  1279       37.0000   361       38.0000       37.0000  1703968    2.63%
   8372  1296       37.0000   313       38.0000       37.0000  1749277    2.63%
   8420  1316       37.0000   252       38.0000       37.0000  1766690    2.63%
   8477  1350       37.0000   246       38.0000       37.0000  1817978    2.63%
Elapsed time = 234.25 sec. (108048.59 ticks, tree = 7.27 MB, solutions = 7)
   8530  1358        cutoff             38.0000       37.0000  1823735    2.63%
   8603  1388       37.0000   172       38.0000       37.0000  1843222    2.63%
   8668  1435        cutoff             38.0000       37.0000  1907298    2.63%
   8762  1460       37.0000   184       38.0000       37.0000  1935650    2.63%
   8847  1512       37.0000   114       38.0000       37.0000  1993427    2.63%
   8916  1551       37.0000   262       38.0000       37.0000  2006049    2.63%
   8964  1572    infeasible             38.0000       37.0000  2040516    2.63%
   9012  1599        cutoff             38.0000       37.0000  2090177    2.63%
   9035  1590       37.0000   135       38.0000       37.0000  2140127    2.63%
   9149  1618       37.0000   137       38.0000       37.0000  2188438    2.63%
Elapsed time = 260.39 sec. (117742.36 ticks, tree = 8.56 MB, solutions = 7)
   9230  1632       37.0000   157       38.0000       37.0000  2219181    2.63%
   9272  1646        cutoff             38.0000       37.0000  2270988    2.63%
   9335  1640       37.0000   142       38.0000       37.0000  2267064    2.63%
   9376  1654        cutoff             38.0000       37.0000  2363310    2.63%
   9422  1650       37.0000   170       38.0000       37.0000  2377625    2.63%
   9468  1682        cutoff             38.0000       37.0000  2432160    2.63%
   9499  1661        cutoff             38.0000       37.0000  2401292    2.63%
   9546  1712       37.0000    85       38.0000       37.0000  2504928    2.63%
   9613  1728        cutoff             38.0000       37.0000  2548016    2.63%
   9701  1738       37.0000   392       38.0000       37.0000  2602883    2.63%
Elapsed time = 286.92 sec. (127484.42 ticks, tree = 9.02 MB, solutions = 7)
   9750  1763       37.0000   356       38.0000       37.0000  2616334    2.63%
   9797  1759        cutoff             38.0000       37.0000  2638206    2.63%
   9837  1789    infeasible             38.0000       37.0000  2676660    2.63%
   9902  1792       37.0000   219       38.0000       37.0000  2683273    2.63%
   9985  1785        cutoff             38.0000       37.0000  2691156    2.63%
  10072  1842        cutoff             38.0000       37.0000  2802972    2.63%
  10139  1825       37.0000   169       38.0000       37.0000  2785627    2.63%
  10192  1889       37.0000   253       38.0000       37.0000  2876237    2.63%
  10273  1863    infeasible             38.0000       37.0000  2922627    2.63%
  10315  1885       37.0000   141       38.0000       37.0000  2963434    2.63%
Elapsed time = 311.93 sec. (137077.65 ticks, tree = 9.71 MB, solutions = 7)
  10396  1886        cutoff             38.0000       37.0000  2952441    2.63%
  10473  1899       37.0000   120       38.0000       37.0000  3055666    2.63%
  10535  1934        cutoff             38.0000       37.0000  3111919    2.63%
  10617  1923        cutoff             38.0000       37.0000  3152410    2.63%
  10664  1919        cutoff             38.0000       37.0000  3238361    2.63%
  10734  1911        cutoff             38.0000       37.0000  3246464    2.63%
  10774  1918        cutoff             38.0000       37.0000  3280904    2.63%
  10804  1902       37.0000   179       38.0000       37.0000  3303121    2.63%
  10854  1882    infeasible             38.0000       37.0000  3394773    2.63%
  10905  1884       37.0000   188       38.0000       37.0000  3410212    2.63%
Elapsed time = 339.10 sec. (146750.00 ticks, tree = 9.45 MB, solutions = 7)
  10997  1885        cutoff             38.0000       37.0000  3442213    2.63%
  11070  1889        cutoff             38.0000       37.0000  3519271    2.63%
  11174  1890       37.0000   151       38.0000       37.0000  3580743    2.63%
  11225  1893       37.0000   164       38.0000       37.0000  3571389    2.63%
  11300  1910       37.0000   310       38.0000       37.0000  3649491    2.63%
  11350  1900    infeasible             38.0000       37.0000  3645977    2.63%
  11423  1939       37.0000   343       38.0000       37.0000  3699380    2.63%
  11526  1942        cutoff             38.0000       37.0000  3734324    2.63%
  11634  1923       37.0000   465       38.0000       37.0000  3734190    2.63%
  11990  2007       37.0000   356       38.0000       37.0000  3915904    2.63%
Elapsed time = 375.16 sec. (159374.89 ticks, tree = 9.78 MB, solutions = 7)
  12364  2029    infeasible             38.0000       37.0000  4067388    2.63%
  12593  2037        cutoff             38.0000       37.0000  4270753    2.63%
  12769  2024        cutoff             38.0000       37.0000  4406851    2.63%
  13030  2013       37.0000    84       38.0000       37.0000  4514103    2.63%
  13304  2011       37.0000   328       38.0000       37.0000  4723772    2.63%
  13497  2039       37.0000   558       38.0000       37.0000  4839783    2.63%
  13759  2072       37.0000   290       38.0000       37.0000  4983405    2.63%
  14209  2119       37.0000   305       38.0000       37.0000  5148904    2.63%
  14666  2132       37.0000   320       38.0000       37.0000  5283896    2.63%
  14988  2088        cutoff             38.0000       37.0000  5491783    2.63%
Elapsed time = 477.42 sec. (197599.12 ticks, tree = 17.04 MB, solutions = 7)
  15329  2052        cutoff             38.0000       37.0000  5707985    2.63%
  15608  2063        cutoff             38.0000       37.0000  5789241    2.63%
  15905  2083        cutoff             38.0000       37.0000  5953509    2.63%
  16033  2099       37.0000   321       38.0000       37.0000  6095711    2.63%
  16279  2140       37.0000   181       38.0000       37.0000  6232840    2.63%
  16647  2114       37.0000   309       38.0000       37.0000  6349551    2.63%
Starting limited solution polishing.
  16896  2104    infeasible             38.0000       37.0000  6492147    2.63%
  17085  2092       37.0000   485       38.0000       37.0000  6700207    2.63%
  17249  2109        cutoff             38.0000       37.0000  6822655    2.63%
  17386  2066        cutoff             38.0000       37.0000  6970334    2.63%
Elapsed time = 579.88 sec. (235875.64 ticks, tree = 21.55 MB, solutions = 7)
  17678  2029        cutoff             38.0000       37.0000  7112897    2.63%
  17974  2037        cutoff             38.0000       37.0000  7201600    2.63%

Clique cuts applied:  8
Cover cuts applied:  5
Mixed integer rounding cuts applied:  4
Zero-half cuts applied:  170
Lift and project cuts applied:  21
Gomory fractional cuts applied:  22

Root node processing (before b&c):
  Real time             =   64.06 sec. (32533.42 ticks)
Parallel b&c, 8 threads:
  Real time             =  536.05 sec. (211887.52 ticks)
  Sync time (average)   =   96.45 sec.
  Wait time (average)   =    0.04 sec.
                          ------------
Total (root+branch&cut) =  600.11 sec. (244420.94 ticks)
